
<<< setup


<<< generate

Version identifier: 22.1.1.0 | 2022-11-28 | 9160aff4d
CPXPARAM_TimeLimit                               1800
Found incumbent of value 0.000000 after 0.00 sec. (9.35 ticks)
Tried aggregator 1 time.
MIP Presolve eliminated 721 rows and 18 columns.
MIP Presolve modified 491364 coefficients.
Reduced MIP has 307107 rows, 246735 columns, and 1105578 nonzeros.
Reduced MIP has 246033 binaries, 702 generals, 0 SOSs, and 0 indicators.
Presolve time = 0.30 sec. (508.49 ticks)
Probing time = 0.13 sec. (71.07 ticks)
Tried aggregator 1 time.
Detecting symmetries...
Reduced MIP has 307107 rows, 246735 columns, and 1105578 nonzeros.
Reduced MIP has 246033 binaries, 702 generals, 0 SOSs, and 0 indicators.
Presolve time = 1.97 sec. (1615.69 ticks)
Probing time = 0.09 sec. (70.87 ticks)
Clique table members: 13696.
MIP emphasis: balance optimality and feasibility.
MIP search method: dynamic search.
Parallel mode: deterministic, using up to 8 threads.
Root relaxation solution time = 108.59 sec. (81283.05 ticks)

        Nodes                                         Cuts/
   Node  Left     Objective  IInf  Best Integer    Best Bound    ItCnt     Gap

*     0+    0                            0.0000    16930.0000              --- 
*     0+    0                          100.0000    16930.0000              --- 
      0     0    16930.0000 122908      100.0000    16930.0000   173114     --- 
      0     0    16930.0000 109869      100.0000   Cuts: 10000   182671     --- 
*     0+    0                         3457.0000    16930.0000           389.73%
      0     0    16930.0000 77490     3457.0000    Cuts: 9998   203176  389.73%
      0     0    16930.0000 74494     3457.0000    Cuts: 1610   209805  389.73%
      0     0    16930.0000 73671     3457.0000    Cuts: 1349   213038  389.73%
      0     0    16930.0000 73683     3457.0000    Cuts: 1202   215502  389.73%
      0     0    16930.0000 41163     3457.0000     Cuts: 249   225804  389.73%
      0     0    16930.0000 40927     3457.0000     Cuts: 742   228445  389.73%
      0     0    16930.0000 38934     3457.0000     Cuts: 462   232875  389.73%
      0     0    16930.0000 39508     3457.0000    Cuts: 1430   248110  389.73%
Heuristic still looking.
*     0+    0                         8408.0000    16930.0000           101.36%
      0     2    16930.0000 28393     8408.0000    16930.0000   248110  101.36%
Elapsed time = 493.03 sec. (704550.32 ticks, tree = 0.02 MB, solutions = 4)
      1     3    16930.0000 27574     8408.0000    16930.0000   261522  101.36%
      2     3    16930.0000 26545     8408.0000    16930.0000   261224  101.36%
      3     4    16930.0000 28889     8408.0000    16930.0000   270105  101.36%
      4     6    16930.0000 31713     8408.0000    16930.0000   316416  101.36%
      5     5    16930.0000 25507     8408.0000    16930.0000   293321  101.36%
      7     8    16930.0000 25015     8408.0000    16930.0000   336189  101.36%
      8     9    16930.0000 30653     8408.0000    16930.0000   337170  101.36%
      9     4    16930.0000 27568     8408.0000    16930.0000   261525  101.36%
     10     9    16930.0000 31481     8408.0000    16930.0000   335911  101.36%
     11    10    16930.0000 24196     8408.0000    16930.0000   340523  101.36%
Elapsed time = 683.74 sec. (831361.59 ticks, tree = 0.11 MB, solutions = 4)
     12     8    16930.0000 24625     8408.0000    16930.0000   336352  101.36%
     13    14    16930.0000 23700     8408.0000    16930.0000   350948  101.36%
     14    15    16930.0000 23504     8408.0000    16930.0000   351512  101.36%
     15    11    16930.0000 33019     8408.0000    16930.0000   360372  101.36%
     16    16    16930.0000 23629     8408.0000    16930.0000   352765  101.36%
     18    12    16930.0000 26525     8408.0000    16930.0000   356864  101.36%
     21    15    16930.0000 24715     8408.0000    16930.0000   352631  101.36%
     24    18    16930.0000 24548     8408.0000    16930.0000   352871  101.36%
     25    19    16930.0000 24558     8408.0000    16930.0000   352915  101.36%
     29    19    16930.0000 26388     8408.0000    16930.0000   386453  101.36%
Elapsed time = 736.56 sec. (864620.57 ticks, tree = 4.82 MB, solutions = 4)
     34    23    16930.0000 22965     8408.0000    16930.0000   397018  101.36%
     36    22    16930.0000 24668     8408.0000    16930.0000   354699  101.36%
     38    24    16930.0000 24334     8408.0000    16930.0000   354718  101.36%
     40    26    16930.0000 24304     8408.0000    16930.0000   354992  101.36%
     44    16    16930.0000 27181     8408.0000    16930.0000   371924  101.36%
     48    42    16930.0000 24268     8408.0000    16930.0000   427398  101.36%
     51    43    16930.0000 24268     8408.0000    16930.0000   427494  101.36%
     57    20    16930.0000 27177     8408.0000    16930.0000   373039  101.36%
     66    22    16930.0000 27497     8408.0000    16930.0000   373415  101.36%
     71    24    16930.0000 27502     8408.0000    16930.0000   373797  101.36%
Elapsed time = 755.13 sec. (876800.50 ticks, tree = 11.56 MB, solutions = 4)
     76    28    16930.0000 27513     8408.0000    16930.0000   374170  101.36%
     79    29    16930.0000 27177     8408.0000    16930.0000   374172  101.36%
     83    31    16930.0000 27177     8408.0000    16930.0000   374204  101.36%
     91    33    16930.0000 27177     8408.0000    16930.0000   374499  101.36%
     96    35    16930.0000 27177     8408.0000    16930.0000   374793  101.36%
     99    37    16930.0000 27177     8408.0000    16930.0000   375038  101.36%
    102    57    16930.0000 24218     8408.0000    16930.0000   428802  101.36%
    104    58    16930.0000 24198     8408.0000    16930.0000   429216  101.36%
    110    60    16930.0000 24137     8408.0000    16930.0000   429707  101.36%
    115    63    16930.0000 24125     8408.0000    16930.0000   429737  101.36%
Elapsed time = 774.23 sec. (888116.84 ticks, tree = 15.11 MB, solutions = 4)
    117    65    16930.0000 23908     8408.0000    16930.0000   430508  101.36%
    120    24    16930.0000 20091     8408.0000    16930.0000   397253  101.36%
    124    97    16930.0000 23904     8408.0000    16930.0000   439386  101.36%
    127    99    16930.0000 23903     8408.0000    16930.0000   439389  101.36%
    130   100    16930.0000 23903     8408.0000    16930.0000   439391  101.36%
    134   105    16930.0000 20072     8408.0000    16930.0000   452334  101.36%
    140   104    16930.0000 23899     8408.0000    16930.0000   439399  101.36%
    146   108    16930.0000 23891     8408.0000    16930.0000   439409  101.36%
    151   110    16930.0000 23889     8408.0000    16930.0000   439415  101.36%
    154   111    16930.0000 20020     8408.0000    16930.0000   453157  101.36%
Elapsed time = 787.89 sec. (900481.02 ticks, tree = 75.33 MB, solutions = 4)
    161     7    16930.0000 31706     8408.0000    16930.0000   316420  101.36%
    167   117    16930.0000 23881     8408.0000    16930.0000   439429  101.36%
    173   105    16930.0000 26357     8408.0000    16930.0000   475878  101.36%
    179   110    16930.0000 26584     8408.0000    16930.0000   477471  101.36%
    183   158    16930.0000 20001     8408.0000    16930.0000   496915  101.36%
    189   113    16930.0000 26959     8408.0000    16930.0000   478286  101.36%
    191   115    16930.0000 26679     8408.0000    16930.0000   478888  101.36%
    193   141    16930.0000 23882     8408.0000    16930.0000   494099  101.36%
    195   142    16930.0000 23913     8408.0000    16930.0000   494265  101.36%
    198   144    16930.0000 23880     8408.0000    16930.0000   494269  101.36%
Elapsed time = 806.62 sec. (913215.76 ticks, tree = 103.64 MB, solutions = 4)
    203   148    16930.0000 23868     8408.0000    16930.0000   494280  101.36%
    207   120    16930.0000 26478     8408.0000    16930.0000   480302  101.36%
    209   115    16930.0000 27109     8408.0000    16930.0000   501173  101.36%
    213   177    16930.0000 26286     8408.0000    16930.0000   501730  101.36%
    216   180    16930.0000 26219     8408.0000    16930.0000   502109  101.36%
    217     6    16930.0000 26985     8408.0000    16930.0000   309098  101.36%
    219   179    16930.0000 25131     8408.0000    16930.0000   537632  101.36%
    220   180    16930.0000 25311     8408.0000    16930.0000   539947  101.36%
    223   175    16930.0000 27434     8408.0000    16930.0000   530046  101.36%
    225   176    16930.0000 25876     8408.0000    16930.0000   531981  101.36%
Elapsed time = 843.86 sec. (935066.75 ticks, tree = 136.35 MB, solutions = 5)
    226   194    16930.0000 21969     8408.0000    16930.0000   560791  101.36%
*   228+  111                         9436.0000    16930.0000            79.42%
    228   113    16930.0000 19131     9436.0000    16930.0000   494149   79.42%
    231   179    16930.0000 25793     9436.0000    16930.0000   532792   79.42%
    234   195    16930.0000 18533     9436.0000    16930.0000   559432   79.42%
    235   181    16930.0000 26216     9436.0000    16930.0000   502111   79.42%
    236   161    16930.0000 19939     9436.0000    16930.0000   496994   79.42%
    242   195    16930.0000 21379     9436.0000    16930.0000   563685   79.42%
    245   197    16930.0000 18174     9436.0000    16930.0000   561658   79.42%
    250   207    16930.0000 19945     9436.0000    16930.0000   561140   79.42%
    256   196    16930.0000 21073     9436.0000    16930.0000   565778   79.42%
Elapsed time = 858.27 sec. (947514.46 ticks, tree = 136.83 MB, solutions = 5)
    263   210    16930.0000 19849     9436.0000    16930.0000   561686   79.42%
    267   224    16930.0000 25327     9436.0000    16930.0000   564147   79.42%
    269   205    16930.0000 24423     9436.0000    16930.0000   563440   79.42%
    278   208    16930.0000 24384     9436.0000    16930.0000   563618   79.42%
    283   202    16930.0000 17813     9436.0000    16930.0000   564515   79.42%
    293   231    16930.0000 25153     9436.0000    16930.0000   565204   79.42%
    298   218    16930.0000 19747     9436.0000    16930.0000   562830   79.42%
    299   219    16930.0000 19627     9436.0000    16930.0000   563121   79.42%
    303   151    16930.0000 23868     9436.0000    16930.0000   494287   79.42%
    304   209    16930.0000 24038     9436.0000    16930.0000   566180   79.42%
Elapsed time = 879.96 sec. (960617.61 ticks, tree = 148.19 MB, solutions = 5)
    311   248    16930.0000 22885     9436.0000    16930.0000   586677   79.42%
    314   239    16930.0000 23831     9436.0000    16930.0000   579150   79.42%
    318   232    16930.0000 23215     9436.0000    16930.0000   575806   79.42%
    321   243    16930.0000 23903     9436.0000    16930.0000   580151   79.42%
    325   246    16930.0000 23782     9436.0000    16930.0000   580250   79.42%
    327   249    16930.0000 22647     9436.0000    16930.0000   588814   79.42%
    330   248    16930.0000 23707     9436.0000    16930.0000   581100   79.42%
    333   250    16930.0000 23605     9436.0000    16930.0000   581623   79.42%
    338   255    16930.0000 23581     9436.0000    16930.0000   582208   79.42%
    348   253    16930.0000 21982     9436.0000    16930.0000   592933   79.42%
Elapsed time = 903.43 sec. (979118.13 ticks, tree = 189.08 MB, solutions = 5)
*   351+  201                        10352.0000    16930.0000            63.54%
    366   311    16930.0000 22644    10352.0000    16930.0000   611969   63.54%
    389   266    16930.0000 22570    10352.0000    16930.0000   602136   63.54%
    418   355    16930.0000 20775    10352.0000    16930.0000   641228   63.54%
    442   322    16930.0000 18108    10352.0000    16930.0000   631646   63.54%
    456   344    16930.0000 19032    10352.0000    16930.0000   636086   63.54%
    463   347    16930.0000 19117    10352.0000    16930.0000   637425   63.54%
    473   381    16930.0000 23584    10352.0000    16930.0000   660006   63.54%
    483   399    16930.0000 21082    10352.0000    16930.0000   665739   63.54%
    496   386    16930.0000 23755    10352.0000    16930.0000   662666   63.54%
    509   454    16930.0000 18117    10352.0000    16930.0000   699528   63.54%
Elapsed time = 961.28 sec. (1021347.13 ticks, tree = 320.93 MB, solutions = 6)
    539   467    16930.0000 22520    10352.0000    16930.0000   726176   63.54%
    569   444    16930.0000 21070    10352.0000    16930.0000   692132   63.54%
    585   498    16930.0000 21050    10352.0000    16930.0000   729180   63.54%
    607   513    16930.0000 16389    10352.0000    16930.0000   738550   63.54%
    615   511    16930.0000 19723    10352.0000    16930.0000   730603   63.54%
    620   516    16930.0000 19441    10352.0000    16930.0000   731484   63.54%
    631   559    16930.0000 19281    10352.0000    16930.0000   742616   63.54%
    655   567    16930.0000 19084    10352.0000    16930.0000   743253   63.54%
    681   569    16930.0000 19356    10352.0000    16930.0000   743756   63.54%
    716   578    16930.0000 18786    10352.0000    16930.0000   744322   63.54%
Elapsed time = 1012.55 sec. (1062060.45 ticks, tree = 520.83 MB, solutions = 6)
    742   631    16930.0000 16299    10352.0000    16930.0000   763960   63.54%
    762   637    16930.0000 16378    10352.0000    16930.0000   764951   63.54%
    776   643    16930.0000 16159    10352.0000    16930.0000   765578   63.54%
    797   600    16930.0000 22082    10352.0000    16930.0000   749683   63.54%
    823   685    16930.0000 18645    10352.0000    16930.0000   775289   63.54%
    851   654    16930.0000 16117    10352.0000    16930.0000   768492   63.54%
    879   671    16930.0000 20165    10352.0000    16930.0000   766872   63.54%
    914   678    16930.0000 20010    10352.0000    16930.0000   767389   63.54%
    935   791    16930.0000 15917    10352.0000    16930.0000   789427   63.54%
    959   694    16930.0000 19802    10352.0000    16930.0000   768728   63.54%
Elapsed time = 1061.60 sec. (1101537.54 ticks, tree = 679.47 MB, solutions = 6)
    980   824    16930.0000 21558    10352.0000    16930.0000   791820   63.54%
   1015   832    16930.0000 21408    10352.0000    16930.0000   792247   63.54%
   1056   952    16930.0000 17769    10352.0000    16930.0000   804356   63.54%
   1106   964    16930.0000 17745    10352.0000    16930.0000   804380   63.54%
   1145   763    16930.0000 16080    10352.0000    16930.0000   784236   63.54%
   1190   815    16930.0000 15690    10352.0000    16930.0000   793149   63.54%
   1234   822    16930.0000 15610    10352.0000    16930.0000   793782   63.54%
   1275   880    16930.0000 21120    10352.0000    16930.0000   794991   63.54%
   1305  1038    16930.0000 15917    10352.0000    16930.0000   817829   63.54%
   1341  1044    16930.0000 15766    10352.0000    16930.0000   818665   63.54%
Elapsed time = 1103.07 sec. (1140820.03 ticks, tree = 1291.94 MB, solutions = 6)
   1384   985    16930.0000 21811    10352.0000    16930.0000   815974   63.54%
   1403  1084    16930.0000 15277    10352.0000    16930.0000   824337   63.54%
   1422  1128    16930.0000 20759    10352.0000    16930.0000   831395   63.54%
   1447  1137    16930.0000 20747    10352.0000    16930.0000   831669   63.54%
   1471  1145    16930.0000 20721    10352.0000    16930.0000   832269   63.54%
   1511  1450    16930.0000 20678    10352.0000    16930.0000   865001   63.54%
   1549  1175    16930.0000 19173    10352.0000    16930.0000   838490   63.54%
   1586  1289    16930.0000 20711    10352.0000    16930.0000   858074   63.54%
   1612  1489    16930.0000 18591    10352.0000    16930.0000   885047   63.54%
   1624  1375    16930.0000 14800    10352.0000    16930.0000   875101   63.54%
Elapsed time = 1146.18 sec. (1180345.55 ticks, tree = 1912.81 MB, solutions = 6)
*  1640+ 1572                        10633.0000    16930.0000            59.22%
   1641  1561    16930.0000 15052    10633.0000    16930.0000   908157   59.22%
*  1650+ 1572                        10699.0000    16930.0000            58.24%
*  1654+ 1572                        10865.0000    16930.0000            55.82%
*  1655+ 1572                        10989.0000    16930.0000            54.06%
*  1655+ 1572                        11007.0000    16930.0000            53.81%
   1660  1486    16930.0000 18027    11007.0000    16930.0000   882612   53.81%
   1672  1487    16930.0000 18185    11007.0000    16930.0000   884776   53.81%
   1682  1574    16930.0000 14443    11007.0000    16930.0000   912417   53.81%
   1694  1580    16930.0000 14381    11007.0000    16930.0000   913585   53.81%
   1714  1633    16930.0000 18984    11007.0000    16930.0000   968421   53.81%
   1738  1640    16930.0000 18910    11007.0000    16930.0000   969398   53.81%
   1752  1660    16930.0000 16509    11007.0000    16930.0000   992542   53.81%
   1767  1663    16930.0000 16322    11007.0000    16930.0000   994220   53.81%
   1778  1667    16930.0000 16338    11007.0000    16930.0000   995820   53.81%
Elapsed time = 1186.48 sec. (1219993.89 ticks, tree = 2436.41 MB, solutions = 11)
Nodefile size = 250.54 MB (38.38 MB after compression)
   1795  1674    16930.0000 16230    11007.0000    16930.0000   997434   53.81%
   1804  1699    16930.0000 13935    11007.0000    16930.0000  1006562   53.81%
   1809  1701    16930.0000 13399    11007.0000    16930.0000  1008592   53.81%
   1810  1683    16930.0000 16153    11007.0000    16930.0000  1003305   53.81%

Performing restart 1

Repeating presolve.
Tried aggregator 1 time.
Reduced MIP has 307107 rows, 246735 columns, and 1105578 nonzeros.
Reduced MIP has 246033 binaries, 702 generals, 0 SOSs, and 0 indicators.
Presolve time = 0.29 sec. (641.65 ticks)
Tried aggregator 1 time.
Reduced MIP has 307107 rows, 246735 columns, and 1105578 nonzeros.
Reduced MIP has 246033 binaries, 702 generals, 0 SOSs, and 0 indicators.
Presolve time = 2.00 sec. (1635.46 ticks)
Represolve time = 3.66 sec. (3466.96 ticks)
   1811     0    16930.0000 79582    11007.0000    Cuts: 9995  1229009   53.81%
   1811     0    16930.0000 61725    11007.0000    Cuts: 9923  1248042   53.81%
   1811     0    16930.0000 52291    11007.0000    Cuts: 9921  1272337   53.81%
   1811     0    16930.0000 52263    11007.0000    Cuts: 9866  1283221   53.81%
   1811     0    16930.0000 50880    11007.0000    Cuts: 9947  1304594   53.81%
   1811     0    16930.0000 50342    11007.0000    Cuts: 9895  1326322   53.81%
   1811     0    16930.0000 49539    11007.0000    Cuts: 9931  1352120   53.81%
   1811     0    16930.0000 48048    11007.0000    Cuts: 9953  1376602   53.81%

Clique cuts applied:  83
Cover cuts applied:  1213
Implied bound cuts applied:  415
Flow cuts applied:  747
Mixed integer rounding cuts applied:  7149
Zero-half cuts applied:  643

Root node processing (before b&c):
  Real time             =  491.57 sec. (700096.60 ticks)
Parallel b&c, 8 threads:
  Real time             = 1308.59 sec. (1542946.76 ticks)
  Sync time (average)   =  172.79 sec.
  Wait time (average)   =    0.00 sec.
                          ------------
Total (root+branch&cut) = 1800.16 sec. (2243043.36 ticks)

<<< solve


OBJECTIVE: 11007

<<< post process


<<< done

